min: 36 x1_1 + 11 x1_2 + 69 x1_3 + 51 x1_4 + 82 x1_5 + 95 x1_6 + 15 x2_1 + 92 x2_2 + 23 x2_3 + 12 x2_4 + 19 x2_5 + 64 x2_6 + 56 x3_1 + 38 x3_2 + 16 x3_3 + 27 x3_4 + 69 x3_5 + 56 x3_6 + 59 x4_1 + 52 x4_2 + 32 x4_3 + 71 x4_4 + 84 x4_5 + 1 x4_6 + 82 x5_1 + 34 x5_2 + 41 x5_3 + 36 x5_4 + 58 x5_5 + 70 x5_6 + 26 x6_1 + 14 x6_2 + 36 x6_3 + 96 x6_4 + 94 x6_5 + 7 x6_6;

x1_1 + x1_2 + x1_3 + x1_4 + x1_5 + x1_6 <= 1990;
x2_1 + x2_2 + x2_3 + x2_4 + x2_5 + x2_6 <= 1016;
x3_1 + x3_2 + x3_3 + x3_4 + x3_5 + x3_6 <= 1151;
x4_1 + x4_2 + x4_3 + x4_4 + x4_5 + x4_6 <= 648;
x5_1 + x5_2 + x5_3 + x5_4 + x5_5 + x5_6 <= 2085;
x6_1 + x6_2 + x6_3 + x6_4 + x6_5 + x6_6 <= 4083;

x1_1 + x2_1 + x3_1 + x4_1 + x5_1 + x6_1 = 937;
x1_2 + x2_2 + x3_2 + x4_2 + x5_2 + x6_2 = 2325;
x1_3 + x2_3 + x3_3 + x4_3 + x5_3 + x6_3 = 2033;
x1_4 + x2_4 + x3_4 + x4_4 + x5_4 + x6_4 = 2666;
x1_5 + x2_5 + x3_5 + x4_5 + x5_5 + x6_5 = 1643;
x1_6 + x2_6 + x3_6 + x4_6 + x5_6 + x6_6 = 2376;

int x1_1, x1_2, x1_3, x1_4, x1_5, x1_6, x2_1, x2_2, x2_3, x2_4, x2_5, x2_6, x3_1, x3_2, x3_3, x3_4, x3_5, x3_6, x4_1, x4_2, x4_3, x4_4, x4_5, x4_6, x5_1, x5_2, x5_3, x5_4, x5_5, x5_6, x6_1, x6_2, x6_3, x6_4, x6_5, x6_6;